
--- Job Untitled_1.gms Start 06/27/15 15:17:56 24.4.5 r52258 WEX-VS8 x86 32bit/MS Windows
GAMS 24.4.5   Copyright (C) 1987-2015 GAMS Development. All rights reserved
Licensee: Ignacio E. Grossmann                           G150105/0001AO-GEN
          Carnegie Mellon University, Dept. of Chemical Engineering  DC9476
          License for teaching and research at degree granting institutions
--- Starting compilation
--- Untitled_1.gms(82) 3 Mb
--- Starting execution: elapsed 0:00:00.002
--- Untitled_1.gms(77) 4 Mb
--- Generating EMP model strip
--- Untitled_1.gms(78) 6 Mb
---   287 rows  244 columns  904 non-zeroes
---   0 nl-code  0 nl-non-zeroes
---   220 discrete-columns
--- Untitled_1.gms(78) 4 Mb
--- Executing JAMS: elapsed 0:00:00.018

JAMS 1.0         24.4.5 r52258 Released May 26, 2015 VS8 x86 32bit/MS Windows 

JAMS - Solver for Extended Mathematical Programs (EMP)
------------------------------------------------------

*** Problems reading JAMS info file: C:\Users\sterraza\Desktop\Documents\Research\Lagrangean_GDP\Logic_based_B_B_strip\225a\empinfo.dat

---
--- No reformulations requested
--- Generating unchanged scalar model
---
--- The model C:\Users\sterraza\Desktop\Documents\Research\Lagrangean_GDP\Logic_based_B_B_strip\225a\emp.dat will be solved by GAMS
---
--- Job emp.dat Start 06/27/15 15:17:56 24.4.5 r52258 WEX-VS8 x86 32bit/MS Windows
GAMS 24.4.5   Copyright (C) 1987-2015 GAMS Development. All rights reserved
Licensee: Ignacio E. Grossmann                           G150105/0001AO-GEN
          Carnegie Mellon University, Dept. of Chemical Engineering  DC9476
          License for teaching and research at degree granting institutions
--- Starting compilation
--- emp.dat(684) 2 Mb
--- Starting execution: elapsed 0:00:00.004
--- emp.dat(683) 3 Mb
--- Generating MIP model m
--- emp.dat(684) 3 Mb
---   287 rows  244 columns  904 non-zeroes
---   220 discrete-columns
--- Executing GUROBI: elapsed 0:00:00.033

Gurobi           24.4.5 r52258 Released May 26, 2015 VS8 x86 32bit/MS Windows 

Gurobi full license.
Gurobi library version 6.0.4
Starting Gurobi...
Optimize a model with 287 rows, 244 columns and 904 nonzeros
Coefficient statistics:
  Matrix range    [1e+00, 3e+01]
  Objective range [1e+00, 1e+00]
  Bounds range    [1e+00, 3e+01]
  RHS range       [1e+00, 3e+01]
Found heuristic solution: objective 15
Presolve removed 1 rows and 1 columns
Presolve time: 0.05s
Presolved: 286 rows, 243 columns, 902 nonzeros
Variable types: 23 continuous, 220 integer (220 binary)

Root relaxation: objective 5.000000e+00, 109 iterations, 0.01 seconds

    Nodes    |    Current Node    |     Objective Bounds      |     Work
 Expl Unexpl |  Obj  Depth IntInf | Incumbent    BestBd   Gap | It/Node Time

     0     0    5.00000    0   24   15.00000    5.00000  66.7%     -    0s
H    0     0                      13.0000000    5.00000  61.5%     -    0s
     0     0    5.00000    0   30   13.00000    5.00000  61.5%     -    0s
     0     0    5.00000    0   30   13.00000    5.00000  61.5%     -    0s
     0     0    5.00000    0   30   13.00000    5.00000  61.5%     -    0s
     0     2    5.00000    0   26   13.00000    5.00000  61.5%     -    0s
*  167    98              56      12.0000000    5.00000  58.3%   6.5    0s
H 1365   458                      12.0000000    8.00000  33.3%   8.1    0s
* 1420   166              48      11.0000000    8.00000  27.3%   7.9    0s

Cutting planes:
  Gomory: 16
  Cover: 10
  Implied bound: 19
  Clique: 7
  MIR: 3
  Flow cover: 7

Explored 6062 nodes (47562 simplex iterations) in 1.83 seconds
Thread count was 1 (of 8 available processors)

Optimal solution found (tolerance 1.00e-03)
Best objective 1.100000000000e+01, best bound 1.100000000000e+01, gap 0.0%
MIP status(2): Model was solved to optimality (subject to tolerances).

Solving fixed MIP.
Optimize a model with 287 rows, 244 columns and 904 nonzeros
Coefficient statistics:
  Matrix range    [1e+00, 3e+01]
  Objective range [1e+00, 1e+00]
  Bounds range    [1e+00, 3e+01]
  RHS range       [1e+00, 3e+01]
Presolve removed 232 rows and 232 columns
Presolve time: 0.00s
Presolved: 55 rows, 29 columns, 137 nonzeros

Iteration    Objective       Primal Inf.    Dual Inf.      Time
       0    1.9980000e+00   4.600300e+01   0.000000e+00      0s
      10    1.1000000e+01   0.000000e+00   0.000000e+00      0s

Solved in 10 iterations and 0.00 seconds
Optimal objective  1.100000000e+01
Fixed MIP status(2): Model was solved to optimality (subject to tolerances).

MIP   Solution:         11.000000    (47562 iterations, 6062 nodes)
Final Solve:            11.000000    (10 iterations)

Best possible:          11.000000
Absolute gap:            0.000000
Relative gap:            0.000000

--- Restarting execution
--- emp.dat(684) 2 Mb
--- Reading solution for model m
*** Status: Normal completion
--- Job emp.dat Stop 06/27/15 15:17:58 elapsed 0:00:02.286
--- Returning from GAMS step
---
--- Equations skipped = 0  Equations added = 0
--- Variables skipped = 0  Variables added = 0
---
--- Restarting execution
--- Untitled_1.gms(78) 2 Mb
--- Reading solution for model strip
--- Executing after solve: elapsed 0:00:02.535
--- Untitled_1.gms(82) 3 Mb
*** Status: Normal completion
--- Job Untitled_1.gms Stop 06/27/15 15:17:58 elapsed 0:00:02.541
